2 0 2 0
2 1 3 5
1 0 1 0
0 0 2 5
0 1 0 6
2 2 5 9
1 1 2 8
3 0 1 8
5 0 1 13
4 0 2 13
3 1 0 13
5 1 3 16
4 1 1 22
5 2 5 19
1 2 4 13
3 2 2 22
2 3 0 18
0 2 1 25
3 3 3 27
5 3 0 28
1 3 5 28
4 2 4 25
3 4 4 30
5 4 4 38
0 3 3 31
2 4 1 31
4 3 5 38
0 4 5 42
1 4 0 38
1 5 3 48
4 4 0 48
4 5 3 52
2 5 4 42
5 5 2 42
0 5 4 49
3 5 5 45

